data;
param K := 2;
param N := 6;
param C := 
	1 15
	2 10;
param L := 
	1 3
	2 2
	3 6
	4 5
	5 4
	6 4;
param D:  1  2  3  4  5  6  7 :=
	1 0  3  4  5  6  6  2
	2 3  0  1  4  5  7  3
	3 4  1  0  5  6  6  4
	4 4  4  5  0  3  3  2
	5 6  7  8  3  0  2  4
	6 6  7  8  3  2  0  4
	7 2  3  4  3  4  4  0
;